% Auto-generated by scripts/generate_dzn.py
% problem_type   = polyominoes
% instance       = polyominoes_53
% source_json    = instances_json/0_low_blowup/polyominoes_53.json
% blowup         = 0.6104218362282878
% representation = NFA

mode = 1;

size = 6;
tiles = 4;
n_expressions = 4;
Q = 171;
S = 5;
q0 = [1, 1, 1, 1];
F = [{18}, {4}, {40}, {38}];
weights = [9, 3, 4, 1, 4, 5, 8, 1, 2, 9, 1, 8, 10, 6, 2, 10, 6, 5, 1, 5, 2, 6, 2, 1, 9, 2, 5, 7, 6, 4, 2, 10, 7, 9, 7, 5];
d_dfa = array3d(1..4, 1..171, 1..5, [
  % k = 1
    0, 0, 0, 0, 0,
    0, 0, 0, 0, 0,
    0, 0, 0, 0, 0,
    0, 0, 0, 0, 0,
    0, 0, 0, 0, 0,
    0, 0, 0, 0, 0,
    0, 0, 0, 0, 0,
    0, 0, 0, 0, 0,
    0, 0, 0, 0, 0,
    0, 0, 0, 0, 0,
    0, 0, 0, 0, 0,
    0, 0, 0, 0, 0,
    0, 0, 0, 0, 0,
    0, 0, 0, 0, 0,
    0, 0, 0, 0, 0,
    0, 0, 0, 0, 0,
    0, 0, 0, 0, 0,
    0, 0, 0, 0, 0,
    0, 0, 0, 0, 0,
    0, 0, 0, 0, 0,
    0, 0, 0, 0, 0,
    0, 0, 0, 0, 0,
    0, 0, 0, 0, 0,
    0, 0, 0, 0, 0,
    0, 0, 0, 0, 0,
    0, 0, 0, 0, 0,
    0, 0, 0, 0, 0,
    0, 0, 0, 0, 0,
    0, 0, 0, 0, 0,
    0, 0, 0, 0, 0,
    0, 0, 0, 0, 0,
    0, 0, 0, 0, 0,
    0, 0, 0, 0, 0,
    0, 0, 0, 0, 0,
    0, 0, 0, 0, 0,
    0, 0, 0, 0, 0,
    0, 0, 0, 0, 0,
    0, 0, 0, 0, 0,
    0, 0, 0, 0, 0,
    0, 0, 0, 0, 0,
    0, 0, 0, 0, 0,
    0, 0, 0, 0, 0,
    0, 0, 0, 0, 0,
    0, 0, 0, 0, 0,
    0, 0, 0, 0, 0,
    0, 0, 0, 0, 0,
    0, 0, 0, 0, 0,
    0, 0, 0, 0, 0,
    0, 0, 0, 0, 0,
    0, 0, 0, 0, 0,
    0, 0, 0, 0, 0,
    0, 0, 0, 0, 0,
    0, 0, 0, 0, 0,
    0, 0, 0, 0, 0,
    0, 0, 0, 0, 0,
    0, 0, 0, 0, 0,
    0, 0, 0, 0, 0,
    0, 0, 0, 0, 0,
    0, 0, 0, 0, 0,
    0, 0, 0, 0, 0,
    0, 0, 0, 0, 0,
    0, 0, 0, 0, 0,
    0, 0, 0, 0, 0,
    0, 0, 0, 0, 0,
    0, 0, 0, 0, 0,
    0, 0, 0, 0, 0,
    0, 0, 0, 0, 0,
    0, 0, 0, 0, 0,
    0, 0, 0, 0, 0,
    0, 0, 0, 0, 0,
    0, 0, 0, 0, 0,
    0, 0, 0, 0, 0,
    0, 0, 0, 0, 0,
    0, 0, 0, 0, 0,
    0, 0, 0, 0, 0,
    0, 0, 0, 0, 0,
    0, 0, 0, 0, 0,
    0, 0, 0, 0, 0,
    0, 0, 0, 0, 0,
    0, 0, 0, 0, 0,
    0, 0, 0, 0, 0,
    0, 0, 0, 0, 0,
    0, 0, 0, 0, 0,
    0, 0, 0, 0, 0,
    0, 0, 0, 0, 0,
    0, 0, 0, 0, 0,
    0, 0, 0, 0, 0,
    0, 0, 0, 0, 0,
    0, 0, 0, 0, 0,
    0, 0, 0, 0, 0,
    0, 0, 0, 0, 0,
    0, 0, 0, 0, 0,
    0, 0, 0, 0, 0,
    0, 0, 0, 0, 0,
    0, 0, 0, 0, 0,
    0, 0, 0, 0, 0,
    0, 0, 0, 0, 0,
    0, 0, 0, 0, 0,
    0, 0, 0, 0, 0,
    0, 0, 0, 0, 0,
    0, 0, 0, 0, 0,
    0, 0, 0, 0, 0,
    0, 0, 0, 0, 0,
    0, 0, 0, 0, 0,
    0, 0, 0, 0, 0,
    0, 0, 0, 0, 0,
    0, 0, 0, 0, 0,
    0, 0, 0, 0, 0,
    0, 0, 0, 0, 0,
    0, 0, 0, 0, 0,
    0, 0, 0, 0, 0,
    0, 0, 0, 0, 0,
    0, 0, 0, 0, 0,
    0, 0, 0, 0, 0,
    0, 0, 0, 0, 0,
    0, 0, 0, 0, 0,
    0, 0, 0, 0, 0,
    0, 0, 0, 0, 0,
    0, 0, 0, 0, 0,
    0, 0, 0, 0, 0,
    0, 0, 0, 0, 0,
    0, 0, 0, 0, 0,
    0, 0, 0, 0, 0,
    0, 0, 0, 0, 0,
    0, 0, 0, 0, 0,
    0, 0, 0, 0, 0,
    0, 0, 0, 0, 0,
    0, 0, 0, 0, 0,
    0, 0, 0, 0, 0,
    0, 0, 0, 0, 0,
    0, 0, 0, 0, 0,
    0, 0, 0, 0, 0,
    0, 0, 0, 0, 0,
    0, 0, 0, 0, 0,
    0, 0, 0, 0, 0,
    0, 0, 0, 0, 0,
    0, 0, 0, 0, 0,
    0, 0, 0, 0, 0,
    0, 0, 0, 0, 0,
    0, 0, 0, 0, 0,
    0, 0, 0, 0, 0,
    0, 0, 0, 0, 0,
    0, 0, 0, 0, 0,
    0, 0, 0, 0, 0,
    0, 0, 0, 0, 0,
    0, 0, 0, 0, 0,
    0, 0, 0, 0, 0,
    0, 0, 0, 0, 0,
    0, 0, 0, 0, 0,
    0, 0, 0, 0, 0,
    0, 0, 0, 0, 0,
    0, 0, 0, 0, 0,
    0, 0, 0, 0, 0,
    0, 0, 0, 0, 0,
    0, 0, 0, 0, 0,
    0, 0, 0, 0, 0,
    0, 0, 0, 0, 0,
    0, 0, 0, 0, 0,
    0, 0, 0, 0, 0,
    0, 0, 0, 0, 0,
    0, 0, 0, 0, 0,
    0, 0, 0, 0, 0,
    0, 0, 0, 0, 0,
    0, 0, 0, 0, 0,
    0, 0, 0, 0, 0,
    0, 0, 0, 0, 0,
    0, 0, 0, 0, 0,
    0, 0, 0, 0, 0,
    0, 0, 0, 0, 0,
    0, 0, 0, 0, 0,
    0, 0, 0, 0, 0,

  % k = 2
    0, 0, 0, 0, 0,
    0, 0, 0, 0, 0,
    0, 0, 0, 0, 0,
    0, 0, 0, 0, 0,
    0, 0, 0, 0, 0,
    0, 0, 0, 0, 0,
    0, 0, 0, 0, 0,
    0, 0, 0, 0, 0,
    0, 0, 0, 0, 0,
    0, 0, 0, 0, 0,
    0, 0, 0, 0, 0,
    0, 0, 0, 0, 0,
    0, 0, 0, 0, 0,
    0, 0, 0, 0, 0,
    0, 0, 0, 0, 0,
    0, 0, 0, 0, 0,
    0, 0, 0, 0, 0,
    0, 0, 0, 0, 0,
    0, 0, 0, 0, 0,
    0, 0, 0, 0, 0,
    0, 0, 0, 0, 0,
    0, 0, 0, 0, 0,
    0, 0, 0, 0, 0,
    0, 0, 0, 0, 0,
    0, 0, 0, 0, 0,
    0, 0, 0, 0, 0,
    0, 0, 0, 0, 0,
    0, 0, 0, 0, 0,
    0, 0, 0, 0, 0,
    0, 0, 0, 0, 0,
    0, 0, 0, 0, 0,
    0, 0, 0, 0, 0,
    0, 0, 0, 0, 0,
    0, 0, 0, 0, 0,
    0, 0, 0, 0, 0,
    0, 0, 0, 0, 0,
    0, 0, 0, 0, 0,
    0, 0, 0, 0, 0,
    0, 0, 0, 0, 0,
    0, 0, 0, 0, 0,
    0, 0, 0, 0, 0,
    0, 0, 0, 0, 0,
    0, 0, 0, 0, 0,
    0, 0, 0, 0, 0,
    0, 0, 0, 0, 0,
    0, 0, 0, 0, 0,
    0, 0, 0, 0, 0,
    0, 0, 0, 0, 0,
    0, 0, 0, 0, 0,
    0, 0, 0, 0, 0,
    0, 0, 0, 0, 0,
    0, 0, 0, 0, 0,
    0, 0, 0, 0, 0,
    0, 0, 0, 0, 0,
    0, 0, 0, 0, 0,
    0, 0, 0, 0, 0,
    0, 0, 0, 0, 0,
    0, 0, 0, 0, 0,
    0, 0, 0, 0, 0,
    0, 0, 0, 0, 0,
    0, 0, 0, 0, 0,
    0, 0, 0, 0, 0,
    0, 0, 0, 0, 0,
    0, 0, 0, 0, 0,
    0, 0, 0, 0, 0,
    0, 0, 0, 0, 0,
    0, 0, 0, 0, 0,
    0, 0, 0, 0, 0,
    0, 0, 0, 0, 0,
    0, 0, 0, 0, 0,
    0, 0, 0, 0, 0,
    0, 0, 0, 0, 0,
    0, 0, 0, 0, 0,
    0, 0, 0, 0, 0,
    0, 0, 0, 0, 0,
    0, 0, 0, 0, 0,
    0, 0, 0, 0, 0,
    0, 0, 0, 0, 0,
    0, 0, 0, 0, 0,
    0, 0, 0, 0, 0,
    0, 0, 0, 0, 0,
    0, 0, 0, 0, 0,
    0, 0, 0, 0, 0,
    0, 0, 0, 0, 0,
    0, 0, 0, 0, 0,
    0, 0, 0, 0, 0,
    0, 0, 0, 0, 0,
    0, 0, 0, 0, 0,
    0, 0, 0, 0, 0,
    0, 0, 0, 0, 0,
    0, 0, 0, 0, 0,
    0, 0, 0, 0, 0,
    0, 0, 0, 0, 0,
    0, 0, 0, 0, 0,
    0, 0, 0, 0, 0,
    0, 0, 0, 0, 0,
    0, 0, 0, 0, 0,
    0, 0, 0, 0, 0,
    0, 0, 0, 0, 0,
    0, 0, 0, 0, 0,
    0, 0, 0, 0, 0,
    0, 0, 0, 0, 0,
    0, 0, 0, 0, 0,
    0, 0, 0, 0, 0,
    0, 0, 0, 0, 0,
    0, 0, 0, 0, 0,
    0, 0, 0, 0, 0,
    0, 0, 0, 0, 0,
    0, 0, 0, 0, 0,
    0, 0, 0, 0, 0,
    0, 0, 0, 0, 0,
    0, 0, 0, 0, 0,
    0, 0, 0, 0, 0,
    0, 0, 0, 0, 0,
    0, 0, 0, 0, 0,
    0, 0, 0, 0, 0,
    0, 0, 0, 0, 0,
    0, 0, 0, 0, 0,
    0, 0, 0, 0, 0,
    0, 0, 0, 0, 0,
    0, 0, 0, 0, 0,
    0, 0, 0, 0, 0,
    0, 0, 0, 0, 0,
    0, 0, 0, 0, 0,
    0, 0, 0, 0, 0,
    0, 0, 0, 0, 0,
    0, 0, 0, 0, 0,
    0, 0, 0, 0, 0,
    0, 0, 0, 0, 0,
    0, 0, 0, 0, 0,
    0, 0, 0, 0, 0,
    0, 0, 0, 0, 0,
    0, 0, 0, 0, 0,
    0, 0, 0, 0, 0,
    0, 0, 0, 0, 0,
    0, 0, 0, 0, 0,
    0, 0, 0, 0, 0,
    0, 0, 0, 0, 0,
    0, 0, 0, 0, 0,
    0, 0, 0, 0, 0,
    0, 0, 0, 0, 0,
    0, 0, 0, 0, 0,
    0, 0, 0, 0, 0,
    0, 0, 0, 0, 0,
    0, 0, 0, 0, 0,
    0, 0, 0, 0, 0,
    0, 0, 0, 0, 0,
    0, 0, 0, 0, 0,
    0, 0, 0, 0, 0,
    0, 0, 0, 0, 0,
    0, 0, 0, 0, 0,
    0, 0, 0, 0, 0,
    0, 0, 0, 0, 0,
    0, 0, 0, 0, 0,
    0, 0, 0, 0, 0,
    0, 0, 0, 0, 0,
    0, 0, 0, 0, 0,
    0, 0, 0, 0, 0,
    0, 0, 0, 0, 0,
    0, 0, 0, 0, 0,
    0, 0, 0, 0, 0,
    0, 0, 0, 0, 0,
    0, 0, 0, 0, 0,
    0, 0, 0, 0, 0,
    0, 0, 0, 0, 0,
    0, 0, 0, 0, 0,
    0, 0, 0, 0, 0,
    0, 0, 0, 0, 0,
    0, 0, 0, 0, 0,
    0, 0, 0, 0, 0,
    0, 0, 0, 0, 0,

  % k = 3
    0, 0, 0, 0, 0,
    0, 0, 0, 0, 0,
    0, 0, 0, 0, 0,
    0, 0, 0, 0, 0,
    0, 0, 0, 0, 0,
    0, 0, 0, 0, 0,
    0, 0, 0, 0, 0,
    0, 0, 0, 0, 0,
    0, 0, 0, 0, 0,
    0, 0, 0, 0, 0,
    0, 0, 0, 0, 0,
    0, 0, 0, 0, 0,
    0, 0, 0, 0, 0,
    0, 0, 0, 0, 0,
    0, 0, 0, 0, 0,
    0, 0, 0, 0, 0,
    0, 0, 0, 0, 0,
    0, 0, 0, 0, 0,
    0, 0, 0, 0, 0,
    0, 0, 0, 0, 0,
    0, 0, 0, 0, 0,
    0, 0, 0, 0, 0,
    0, 0, 0, 0, 0,
    0, 0, 0, 0, 0,
    0, 0, 0, 0, 0,
    0, 0, 0, 0, 0,
    0, 0, 0, 0, 0,
    0, 0, 0, 0, 0,
    0, 0, 0, 0, 0,
    0, 0, 0, 0, 0,
    0, 0, 0, 0, 0,
    0, 0, 0, 0, 0,
    0, 0, 0, 0, 0,
    0, 0, 0, 0, 0,
    0, 0, 0, 0, 0,
    0, 0, 0, 0, 0,
    0, 0, 0, 0, 0,
    0, 0, 0, 0, 0,
    0, 0, 0, 0, 0,
    0, 0, 0, 0, 0,
    0, 0, 0, 0, 0,
    0, 0, 0, 0, 0,
    0, 0, 0, 0, 0,
    0, 0, 0, 0, 0,
    0, 0, 0, 0, 0,
    0, 0, 0, 0, 0,
    0, 0, 0, 0, 0,
    0, 0, 0, 0, 0,
    0, 0, 0, 0, 0,
    0, 0, 0, 0, 0,
    0, 0, 0, 0, 0,
    0, 0, 0, 0, 0,
    0, 0, 0, 0, 0,
    0, 0, 0, 0, 0,
    0, 0, 0, 0, 0,
    0, 0, 0, 0, 0,
    0, 0, 0, 0, 0,
    0, 0, 0, 0, 0,
    0, 0, 0, 0, 0,
    0, 0, 0, 0, 0,
    0, 0, 0, 0, 0,
    0, 0, 0, 0, 0,
    0, 0, 0, 0, 0,
    0, 0, 0, 0, 0,
    0, 0, 0, 0, 0,
    0, 0, 0, 0, 0,
    0, 0, 0, 0, 0,
    0, 0, 0, 0, 0,
    0, 0, 0, 0, 0,
    0, 0, 0, 0, 0,
    0, 0, 0, 0, 0,
    0, 0, 0, 0, 0,
    0, 0, 0, 0, 0,
    0, 0, 0, 0, 0,
    0, 0, 0, 0, 0,
    0, 0, 0, 0, 0,
    0, 0, 0, 0, 0,
    0, 0, 0, 0, 0,
    0, 0, 0, 0, 0,
    0, 0, 0, 0, 0,
    0, 0, 0, 0, 0,
    0, 0, 0, 0, 0,
    0, 0, 0, 0, 0,
    0, 0, 0, 0, 0,
    0, 0, 0, 0, 0,
    0, 0, 0, 0, 0,
    0, 0, 0, 0, 0,
    0, 0, 0, 0, 0,
    0, 0, 0, 0, 0,
    0, 0, 0, 0, 0,
    0, 0, 0, 0, 0,
    0, 0, 0, 0, 0,
    0, 0, 0, 0, 0,
    0, 0, 0, 0, 0,
    0, 0, 0, 0, 0,
    0, 0, 0, 0, 0,
    0, 0, 0, 0, 0,
    0, 0, 0, 0, 0,
    0, 0, 0, 0, 0,
    0, 0, 0, 0, 0,
    0, 0, 0, 0, 0,
    0, 0, 0, 0, 0,
    0, 0, 0, 0, 0,
    0, 0, 0, 0, 0,
    0, 0, 0, 0, 0,
    0, 0, 0, 0, 0,
    0, 0, 0, 0, 0,
    0, 0, 0, 0, 0,
    0, 0, 0, 0, 0,
    0, 0, 0, 0, 0,
    0, 0, 0, 0, 0,
    0, 0, 0, 0, 0,
    0, 0, 0, 0, 0,
    0, 0, 0, 0, 0,
    0, 0, 0, 0, 0,
    0, 0, 0, 0, 0,
    0, 0, 0, 0, 0,
    0, 0, 0, 0, 0,
    0, 0, 0, 0, 0,
    0, 0, 0, 0, 0,
    0, 0, 0, 0, 0,
    0, 0, 0, 0, 0,
    0, 0, 0, 0, 0,
    0, 0, 0, 0, 0,
    0, 0, 0, 0, 0,
    0, 0, 0, 0, 0,
    0, 0, 0, 0, 0,
    0, 0, 0, 0, 0,
    0, 0, 0, 0, 0,
    0, 0, 0, 0, 0,
    0, 0, 0, 0, 0,
    0, 0, 0, 0, 0,
    0, 0, 0, 0, 0,
    0, 0, 0, 0, 0,
    0, 0, 0, 0, 0,
    0, 0, 0, 0, 0,
    0, 0, 0, 0, 0,
    0, 0, 0, 0, 0,
    0, 0, 0, 0, 0,
    0, 0, 0, 0, 0,
    0, 0, 0, 0, 0,
    0, 0, 0, 0, 0,
    0, 0, 0, 0, 0,
    0, 0, 0, 0, 0,
    0, 0, 0, 0, 0,
    0, 0, 0, 0, 0,
    0, 0, 0, 0, 0,
    0, 0, 0, 0, 0,
    0, 0, 0, 0, 0,
    0, 0, 0, 0, 0,
    0, 0, 0, 0, 0,
    0, 0, 0, 0, 0,
    0, 0, 0, 0, 0,
    0, 0, 0, 0, 0,
    0, 0, 0, 0, 0,
    0, 0, 0, 0, 0,
    0, 0, 0, 0, 0,
    0, 0, 0, 0, 0,
    0, 0, 0, 0, 0,
    0, 0, 0, 0, 0,
    0, 0, 0, 0, 0,
    0, 0, 0, 0, 0,
    0, 0, 0, 0, 0,
    0, 0, 0, 0, 0,
    0, 0, 0, 0, 0,
    0, 0, 0, 0, 0,
    0, 0, 0, 0, 0,
    0, 0, 0, 0, 0,
    0, 0, 0, 0, 0,
    0, 0, 0, 0, 0,
    0, 0, 0, 0, 0,

  % k = 4
    0, 0, 0, 0, 0,
    0, 0, 0, 0, 0,
    0, 0, 0, 0, 0,
    0, 0, 0, 0, 0,
    0, 0, 0, 0, 0,
    0, 0, 0, 0, 0,
    0, 0, 0, 0, 0,
    0, 0, 0, 0, 0,
    0, 0, 0, 0, 0,
    0, 0, 0, 0, 0,
    0, 0, 0, 0, 0,
    0, 0, 0, 0, 0,
    0, 0, 0, 0, 0,
    0, 0, 0, 0, 0,
    0, 0, 0, 0, 0,
    0, 0, 0, 0, 0,
    0, 0, 0, 0, 0,
    0, 0, 0, 0, 0,
    0, 0, 0, 0, 0,
    0, 0, 0, 0, 0,
    0, 0, 0, 0, 0,
    0, 0, 0, 0, 0,
    0, 0, 0, 0, 0,
    0, 0, 0, 0, 0,
    0, 0, 0, 0, 0,
    0, 0, 0, 0, 0,
    0, 0, 0, 0, 0,
    0, 0, 0, 0, 0,
    0, 0, 0, 0, 0,
    0, 0, 0, 0, 0,
    0, 0, 0, 0, 0,
    0, 0, 0, 0, 0,
    0, 0, 0, 0, 0,
    0, 0, 0, 0, 0,
    0, 0, 0, 0, 0,
    0, 0, 0, 0, 0,
    0, 0, 0, 0, 0,
    0, 0, 0, 0, 0,
    0, 0, 0, 0, 0,
    0, 0, 0, 0, 0,
    0, 0, 0, 0, 0,
    0, 0, 0, 0, 0,
    0, 0, 0, 0, 0,
    0, 0, 0, 0, 0,
    0, 0, 0, 0, 0,
    0, 0, 0, 0, 0,
    0, 0, 0, 0, 0,
    0, 0, 0, 0, 0,
    0, 0, 0, 0, 0,
    0, 0, 0, 0, 0,
    0, 0, 0, 0, 0,
    0, 0, 0, 0, 0,
    0, 0, 0, 0, 0,
    0, 0, 0, 0, 0,
    0, 0, 0, 0, 0,
    0, 0, 0, 0, 0,
    0, 0, 0, 0, 0,
    0, 0, 0, 0, 0,
    0, 0, 0, 0, 0,
    0, 0, 0, 0, 0,
    0, 0, 0, 0, 0,
    0, 0, 0, 0, 0,
    0, 0, 0, 0, 0,
    0, 0, 0, 0, 0,
    0, 0, 0, 0, 0,
    0, 0, 0, 0, 0,
    0, 0, 0, 0, 0,
    0, 0, 0, 0, 0,
    0, 0, 0, 0, 0,
    0, 0, 0, 0, 0,
    0, 0, 0, 0, 0,
    0, 0, 0, 0, 0,
    0, 0, 0, 0, 0,
    0, 0, 0, 0, 0,
    0, 0, 0, 0, 0,
    0, 0, 0, 0, 0,
    0, 0, 0, 0, 0,
    0, 0, 0, 0, 0,
    0, 0, 0, 0, 0,
    0, 0, 0, 0, 0,
    0, 0, 0, 0, 0,
    0, 0, 0, 0, 0,
    0, 0, 0, 0, 0,
    0, 0, 0, 0, 0,
    0, 0, 0, 0, 0,
    0, 0, 0, 0, 0,
    0, 0, 0, 0, 0,
    0, 0, 0, 0, 0,
    0, 0, 0, 0, 0,
    0, 0, 0, 0, 0,
    0, 0, 0, 0, 0,
    0, 0, 0, 0, 0,
    0, 0, 0, 0, 0,
    0, 0, 0, 0, 0,
    0, 0, 0, 0, 0,
    0, 0, 0, 0, 0,
    0, 0, 0, 0, 0,
    0, 0, 0, 0, 0,
    0, 0, 0, 0, 0,
    0, 0, 0, 0, 0,
    0, 0, 0, 0, 0,
    0, 0, 0, 0, 0,
    0, 0, 0, 0, 0,
    0, 0, 0, 0, 0,
    0, 0, 0, 0, 0,
    0, 0, 0, 0, 0,
    0, 0, 0, 0, 0,
    0, 0, 0, 0, 0,
    0, 0, 0, 0, 0,
    0, 0, 0, 0, 0,
    0, 0, 0, 0, 0,
    0, 0, 0, 0, 0,
    0, 0, 0, 0, 0,
    0, 0, 0, 0, 0,
    0, 0, 0, 0, 0,
    0, 0, 0, 0, 0,
    0, 0, 0, 0, 0,
    0, 0, 0, 0, 0,
    0, 0, 0, 0, 0,
    0, 0, 0, 0, 0,
    0, 0, 0, 0, 0,
    0, 0, 0, 0, 0,
    0, 0, 0, 0, 0,
    0, 0, 0, 0, 0,
    0, 0, 0, 0, 0,
    0, 0, 0, 0, 0,
    0, 0, 0, 0, 0,
    0, 0, 0, 0, 0,
    0, 0, 0, 0, 0,
    0, 0, 0, 0, 0,
    0, 0, 0, 0, 0,
    0, 0, 0, 0, 0,
    0, 0, 0, 0, 0,
    0, 0, 0, 0, 0,
    0, 0, 0, 0, 0,
    0, 0, 0, 0, 0,
    0, 0, 0, 0, 0,
    0, 0, 0, 0, 0,
    0, 0, 0, 0, 0,
    0, 0, 0, 0, 0,
    0, 0, 0, 0, 0,
    0, 0, 0, 0, 0,
    0, 0, 0, 0, 0,
    0, 0, 0, 0, 0,
    0, 0, 0, 0, 0,
    0, 0, 0, 0, 0,
    0, 0, 0, 0, 0,
    0, 0, 0, 0, 0,
    0, 0, 0, 0, 0,
    0, 0, 0, 0, 0,
    0, 0, 0, 0, 0,
    0, 0, 0, 0, 0,
    0, 0, 0, 0, 0,
    0, 0, 0, 0, 0,
    0, 0, 0, 0, 0,
    0, 0, 0, 0, 0,
    0, 0, 0, 0, 0,
    0, 0, 0, 0, 0,
    0, 0, 0, 0, 0,
    0, 0, 0, 0, 0,
    0, 0, 0, 0, 0,
    0, 0, 0, 0, 0,
    0, 0, 0, 0, 0,
    0, 0, 0, 0, 0,
    0, 0, 0, 0, 0,
    0, 0, 0, 0, 0,
    0, 0, 0, 0, 0,
    0, 0, 0, 0, 0,
    0, 0, 0, 0, 0,
    0, 0, 0, 0, 0,
    0, 0, 0, 0, 0
]);
d_nfa = array3d(1..4, 1..171, 1..5, [
  % k = 1
    {3, 20, 28, 29, 34, 42, 45, 54}, {2, 19, 27, 41, 44, 53, 56, 57}, {2, 19, 27, 41, 44, 53, 56, 57}, {2, 19, 27, 41, 44, 53, 56, 57}, {2, 19, 27, 41, 44, 53, 56, 57},
    {3}, {2}, {2}, {2}, {2},
    {4}, {}, {}, {}, {},
    {}, {5}, {5}, {5}, {5},
    {}, {6}, {6}, {6}, {6},
    {}, {7}, {7}, {7}, {7},
    {}, {8}, {8}, {8}, {8},
    {}, {9}, {9}, {9}, {9},
    {10}, {}, {}, {}, {},
    {11}, {}, {}, {}, {},
    {}, {12}, {12}, {12}, {12},
    {}, {13}, {13}, {13}, {13},
    {}, {14}, {14}, {14}, {14},
    {}, {15}, {15}, {15}, {15},
    {}, {16}, {16}, {16}, {16},
    {}, {17}, {17}, {17}, {17},
    {18}, {}, {}, {}, {},
    {}, {18}, {18}, {18}, {18},
    {20}, {19}, {19}, {19}, {19},
    {21}, {}, {}, {}, {},
    {}, {22}, {22}, {22}, {22},
    {}, {23}, {23}, {23}, {23},
    {}, {24}, {24}, {24}, {24},
    {}, {25}, {25}, {25}, {25},
    {26}, {}, {}, {}, {},
    {17}, {}, {}, {}, {},
    {28}, {27}, {27}, {27}, {27},
    {}, {29}, {29}, {29}, {29},
    {}, {30}, {30}, {30}, {30},
    {}, {31}, {31}, {31}, {31},
    {}, {32}, {32}, {32}, {32},
    {}, {33}, {33}, {33}, {33},
    {}, {34}, {34}, {34}, {34},
    {35}, {}, {}, {}, {},
    {36}, {}, {}, {}, {},
    {}, {37}, {37}, {37}, {37},
    {}, {38}, {38}, {38}, {38},
    {}, {39}, {39}, {39}, {39},
    {}, {40}, {40}, {40}, {40},
    {}, {26}, {26}, {26}, {26},
    {42}, {41}, {41}, {41}, {41},
    {43}, {}, {}, {}, {},
    {37}, {}, {}, {}, {},
    {45}, {44}, {44}, {44}, {44},
    {46}, {}, {}, {}, {},
    {}, {47}, {47}, {47}, {47},
    {}, {48}, {48}, {48}, {48},
    {}, {49}, {49}, {49}, {49},
    {}, {50}, {50}, {50}, {50},
    {}, {51}, {51}, {51}, {51},
    {52}, {}, {}, {}, {},
    {12}, {}, {}, {}, {},
    {54}, {53}, {53}, {53}, {53},
    {55}, {}, {}, {}, {},
    {}, {21}, {21}, {21}, {21},
    {29}, {56}, {56}, {56}, {56},
    {34}, {57}, {57}, {57}, {57},
    {}, {}, {}, {}, {},
    {}, {}, {}, {}, {},
    {}, {}, {}, {}, {},
    {}, {}, {}, {}, {},
    {}, {}, {}, {}, {},
    {}, {}, {}, {}, {},
    {}, {}, {}, {}, {},
    {}, {}, {}, {}, {},
    {}, {}, {}, {}, {},
    {}, {}, {}, {}, {},
    {}, {}, {}, {}, {},
    {}, {}, {}, {}, {},
    {}, {}, {}, {}, {},
    {}, {}, {}, {}, {},
    {}, {}, {}, {}, {},
    {}, {}, {}, {}, {},
    {}, {}, {}, {}, {},
    {}, {}, {}, {}, {},
    {}, {}, {}, {}, {},
    {}, {}, {}, {}, {},
    {}, {}, {}, {}, {},
    {}, {}, {}, {}, {},
    {}, {}, {}, {}, {},
    {}, {}, {}, {}, {},
    {}, {}, {}, {}, {},
    {}, {}, {}, {}, {},
    {}, {}, {}, {}, {},
    {}, {}, {}, {}, {},
    {}, {}, {}, {}, {},
    {}, {}, {}, {}, {},
    {}, {}, {}, {}, {},
    {}, {}, {}, {}, {},
    {}, {}, {}, {}, {},
    {}, {}, {}, {}, {},
    {}, {}, {}, {}, {},
    {}, {}, {}, {}, {},
    {}, {}, {}, {}, {},
    {}, {}, {}, {}, {},
    {}, {}, {}, {}, {},
    {}, {}, {}, {}, {},
    {}, {}, {}, {}, {},
    {}, {}, {}, {}, {},
    {}, {}, {}, {}, {},
    {}, {}, {}, {}, {},
    {}, {}, {}, {}, {},
    {}, {}, {}, {}, {},
    {}, {}, {}, {}, {},
    {}, {}, {}, {}, {},
    {}, {}, {}, {}, {},
    {}, {}, {}, {}, {},
    {}, {}, {}, {}, {},
    {}, {}, {}, {}, {},
    {}, {}, {}, {}, {},
    {}, {}, {}, {}, {},
    {}, {}, {}, {}, {},
    {}, {}, {}, {}, {},
    {}, {}, {}, {}, {},
    {}, {}, {}, {}, {},
    {}, {}, {}, {}, {},
    {}, {}, {}, {}, {},
    {}, {}, {}, {}, {},
    {}, {}, {}, {}, {},
    {}, {}, {}, {}, {},
    {}, {}, {}, {}, {},
    {}, {}, {}, {}, {},
    {}, {}, {}, {}, {},
    {}, {}, {}, {}, {},
    {}, {}, {}, {}, {},
    {}, {}, {}, {}, {},
    {}, {}, {}, {}, {},
    {}, {}, {}, {}, {},
    {}, {}, {}, {}, {},
    {}, {}, {}, {}, {},
    {}, {}, {}, {}, {},
    {}, {}, {}, {}, {},
    {}, {}, {}, {}, {},
    {}, {}, {}, {}, {},
    {}, {}, {}, {}, {},
    {}, {}, {}, {}, {},
    {}, {}, {}, {}, {},
    {}, {}, {}, {}, {},
    {}, {}, {}, {}, {},
    {}, {}, {}, {}, {},
    {}, {}, {}, {}, {},
    {}, {}, {}, {}, {},
    {}, {}, {}, {}, {},
    {}, {}, {}, {}, {},
    {}, {}, {}, {}, {},
    {}, {}, {}, {}, {},
    {}, {}, {}, {}, {},
    {}, {}, {}, {}, {},
    {}, {}, {}, {}, {},
    {}, {}, {}, {}, {},
    {}, {}, {}, {}, {},
    {}, {}, {}, {}, {},
    {}, {}, {}, {}, {},
    {}, {}, {}, {}, {},
    {}, {}, {}, {}, {},
    {}, {}, {}, {}, {},
    {}, {}, {}, {}, {},
    {}, {}, {}, {}, {},
    {}, {}, {}, {}, {},
    {}, {}, {}, {}, {},
    {}, {}, {}, {}, {},
    {}, {}, {}, {}, {},
    {}, {}, {}, {}, {},
    {}, {}, {}, {}, {},
    {}, {}, {}, {}, {},
    {}, {}, {}, {}, {},
    {}, {}, {}, {}, {},
    {}, {}, {}, {}, {},
    {}, {}, {}, {}, {},
    {}, {}, {}, {}, {},
    {}, {}, {}, {}, {},

  % k = 2
    {2, 5}, {3, 6}, {2, 5}, {2, 5}, {2, 5},
    {2}, {3}, {2}, {2}, {2},
    {}, {4}, {}, {}, {},
    {4}, {}, {4}, {4}, {4},
    {5}, {6}, {5}, {5}, {5},
    {7}, {}, {7}, {7}, {7},
    {8}, {}, {8}, {8}, {8},
    {9}, {}, {9}, {9}, {9},
    {10}, {}, {10}, {10}, {10},
    {11}, {}, {11}, {11}, {11},
    {3}, {}, {3}, {3}, {3},
    {}, {}, {}, {}, {},
    {}, {}, {}, {}, {},
    {}, {}, {}, {}, {},
    {}, {}, {}, {}, {},
    {}, {}, {}, {}, {},
    {}, {}, {}, {}, {},
    {}, {}, {}, {}, {},
    {}, {}, {}, {}, {},
    {}, {}, {}, {}, {},
    {}, {}, {}, {}, {},
    {}, {}, {}, {}, {},
    {}, {}, {}, {}, {},
    {}, {}, {}, {}, {},
    {}, {}, {}, {}, {},
    {}, {}, {}, {}, {},
    {}, {}, {}, {}, {},
    {}, {}, {}, {}, {},
    {}, {}, {}, {}, {},
    {}, {}, {}, {}, {},
    {}, {}, {}, {}, {},
    {}, {}, {}, {}, {},
    {}, {}, {}, {}, {},
    {}, {}, {}, {}, {},
    {}, {}, {}, {}, {},
    {}, {}, {}, {}, {},
    {}, {}, {}, {}, {},
    {}, {}, {}, {}, {},
    {}, {}, {}, {}, {},
    {}, {}, {}, {}, {},
    {}, {}, {}, {}, {},
    {}, {}, {}, {}, {},
    {}, {}, {}, {}, {},
    {}, {}, {}, {}, {},
    {}, {}, {}, {}, {},
    {}, {}, {}, {}, {},
    {}, {}, {}, {}, {},
    {}, {}, {}, {}, {},
    {}, {}, {}, {}, {},
    {}, {}, {}, {}, {},
    {}, {}, {}, {}, {},
    {}, {}, {}, {}, {},
    {}, {}, {}, {}, {},
    {}, {}, {}, {}, {},
    {}, {}, {}, {}, {},
    {}, {}, {}, {}, {},
    {}, {}, {}, {}, {},
    {}, {}, {}, {}, {},
    {}, {}, {}, {}, {},
    {}, {}, {}, {}, {},
    {}, {}, {}, {}, {},
    {}, {}, {}, {}, {},
    {}, {}, {}, {}, {},
    {}, {}, {}, {}, {},
    {}, {}, {}, {}, {},
    {}, {}, {}, {}, {},
    {}, {}, {}, {}, {},
    {}, {}, {}, {}, {},
    {}, {}, {}, {}, {},
    {}, {}, {}, {}, {},
    {}, {}, {}, {}, {},
    {}, {}, {}, {}, {},
    {}, {}, {}, {}, {},
    {}, {}, {}, {}, {},
    {}, {}, {}, {}, {},
    {}, {}, {}, {}, {},
    {}, {}, {}, {}, {},
    {}, {}, {}, {}, {},
    {}, {}, {}, {}, {},
    {}, {}, {}, {}, {},
    {}, {}, {}, {}, {},
    {}, {}, {}, {}, {},
    {}, {}, {}, {}, {},
    {}, {}, {}, {}, {},
    {}, {}, {}, {}, {},
    {}, {}, {}, {}, {},
    {}, {}, {}, {}, {},
    {}, {}, {}, {}, {},
    {}, {}, {}, {}, {},
    {}, {}, {}, {}, {},
    {}, {}, {}, {}, {},
    {}, {}, {}, {}, {},
    {}, {}, {}, {}, {},
    {}, {}, {}, {}, {},
    {}, {}, {}, {}, {},
    {}, {}, {}, {}, {},
    {}, {}, {}, {}, {},
    {}, {}, {}, {}, {},
    {}, {}, {}, {}, {},
    {}, {}, {}, {}, {},
    {}, {}, {}, {}, {},
    {}, {}, {}, {}, {},
    {}, {}, {}, {}, {},
    {}, {}, {}, {}, {},
    {}, {}, {}, {}, {},
    {}, {}, {}, {}, {},
    {}, {}, {}, {}, {},
    {}, {}, {}, {}, {},
    {}, {}, {}, {}, {},
    {}, {}, {}, {}, {},
    {}, {}, {}, {}, {},
    {}, {}, {}, {}, {},
    {}, {}, {}, {}, {},
    {}, {}, {}, {}, {},
    {}, {}, {}, {}, {},
    {}, {}, {}, {}, {},
    {}, {}, {}, {}, {},
    {}, {}, {}, {}, {},
    {}, {}, {}, {}, {},
    {}, {}, {}, {}, {},
    {}, {}, {}, {}, {},
    {}, {}, {}, {}, {},
    {}, {}, {}, {}, {},
    {}, {}, {}, {}, {},
    {}, {}, {}, {}, {},
    {}, {}, {}, {}, {},
    {}, {}, {}, {}, {},
    {}, {}, {}, {}, {},
    {}, {}, {}, {}, {},
    {}, {}, {}, {}, {},
    {}, {}, {}, {}, {},
    {}, {}, {}, {}, {},
    {}, {}, {}, {}, {},
    {}, {}, {}, {}, {},
    {}, {}, {}, {}, {},
    {}, {}, {}, {}, {},
    {}, {}, {}, {}, {},
    {}, {}, {}, {}, {},
    {}, {}, {}, {}, {},
    {}, {}, {}, {}, {},
    {}, {}, {}, {}, {},
    {}, {}, {}, {}, {},
    {}, {}, {}, {}, {},
    {}, {}, {}, {}, {},
    {}, {}, {}, {}, {},
    {}, {}, {}, {}, {},
    {}, {}, {}, {}, {},
    {}, {}, {}, {}, {},
    {}, {}, {}, {}, {},
    {}, {}, {}, {}, {},
    {}, {}, {}, {}, {},
    {}, {}, {}, {}, {},
    {}, {}, {}, {}, {},
    {}, {}, {}, {}, {},
    {}, {}, {}, {}, {},
    {}, {}, {}, {}, {},
    {}, {}, {}, {}, {},
    {}, {}, {}, {}, {},
    {}, {}, {}, {}, {},
    {}, {}, {}, {}, {},
    {}, {}, {}, {}, {},
    {}, {}, {}, {}, {},
    {}, {}, {}, {}, {},
    {}, {}, {}, {}, {},
    {}, {}, {}, {}, {},
    {}, {}, {}, {}, {},
    {}, {}, {}, {}, {},
    {}, {}, {}, {}, {},
    {}, {}, {}, {}, {},
    {}, {}, {}, {}, {},
    {}, {}, {}, {}, {},

  % k = 3
    {2, 41, 65, 86, 108, 126, 146, 171}, {2, 41, 65, 86, 108, 126, 146, 171}, {3, 42, 66, 87, 88, 109, 127, 147}, {2, 41, 65, 86, 108, 126, 146, 171}, {2, 41, 65, 86, 108, 126, 146, 171},
    {2}, {2}, {3}, {2}, {2},
    {}, {}, {4}, {}, {},
    {}, {}, {5}, {}, {},
    {6}, {6}, {}, {6}, {6},
    {7}, {7}, {}, {7}, {7},
    {8}, {8}, {}, {8}, {8},
    {9}, {9}, {}, {9}, {9},
    {}, {}, {10}, {}, {},
    {}, {}, {11}, {}, {},
    {}, {}, {12}, {}, {},
    {13}, {13}, {}, {13}, {13},
    {14}, {14}, {}, {14}, {14},
    {15}, {15}, {}, {15}, {15},
    {16}, {16}, {}, {16}, {16},
    {}, {}, {17}, {}, {},
    {}, {}, {18}, {}, {},
    {}, {}, {19}, {}, {},
    {}, {}, {20}, {}, {},
    {21}, {21}, {}, {21}, {21},
    {22}, {22}, {}, {22}, {22},
    {23}, {23}, {}, {23}, {23},
    {}, {}, {24}, {}, {},
    {}, {}, {25}, {}, {},
    {}, {}, {26}, {}, {},
    {27}, {27}, {}, {27}, {27},
    {28}, {28}, {}, {28}, {28},
    {29}, {29}, {}, {29}, {29},
    {30}, {30}, {}, {30}, {30},
    {}, {}, {31}, {}, {},
    {}, {}, {32}, {}, {},
    {}, {}, {33}, {}, {},
    {34}, {34}, {}, {34}, {34},
    {35}, {35}, {}, {35}, {35},
    {36}, {36}, {}, {36}, {36},
    {37}, {37}, {}, {37}, {37},
    {}, {}, {38}, {}, {},
    {}, {}, {39}, {}, {},
    {}, {}, {40}, {}, {},
    {40}, {40}, {}, {40}, {40},
    {41}, {41}, {42}, {41}, {41},
    {}, {}, {43}, {}, {},
    {}, {}, {44}, {}, {},
    {}, {}, {45}, {}, {},
    {}, {}, {46}, {}, {},
    {}, {}, {47}, {}, {},
    {48}, {48}, {}, {48}, {48},
    {}, {}, {49}, {}, {},
    {}, {}, {50}, {}, {},
    {}, {}, {51}, {}, {},
    {}, {}, {52}, {}, {},
    {}, {}, {53}, {}, {},
    {}, {}, {54}, {}, {},
    {55}, {55}, {}, {55}, {55},
    {}, {}, {56}, {}, {},
    {}, {}, {57}, {}, {},
    {}, {}, {58}, {}, {},
    {}, {}, {59}, {}, {},
    {}, {}, {60}, {}, {},
    {}, {}, {61}, {}, {},
    {62}, {62}, {}, {62}, {62},
    {63}, {63}, {}, {63}, {63},
    {64}, {64}, {}, {64}, {64},
    {39}, {39}, {}, {39}, {39},
    {65}, {65}, {66}, {65}, {65},
    {}, {}, {67}, {}, {},
    {}, {}, {68}, {}, {},
    {69}, {69}, {}, {69}, {69},
    {70}, {70}, {}, {70}, {70},
    {71}, {71}, {}, {71}, {71},
    {72}, {72}, {}, {72}, {72},
    {}, {}, {73}, {}, {},
    {}, {}, {74}, {}, {},
    {}, {}, {75}, {}, {},
    {76}, {76}, {}, {76}, {76},
    {77}, {77}, {}, {77}, {77},
    {78}, {78}, {}, {78}, {78},
    {79}, {79}, {}, {79}, {79},
    {}, {}, {80}, {}, {},
    {}, {}, {81}, {}, {},
    {}, {}, {82}, {}, {},
    {83}, {83}, {}, {83}, {83},
    {84}, {84}, {}, {84}, {84},
    {85}, {85}, {}, {85}, {85},
    {}, {}, {23}, {}, {},
    {86}, {86}, {87}, {86}, {86},
    {88}, {88}, {}, {88}, {88},
    {89}, {89}, {}, {89}, {89},
    {90}, {90}, {}, {90}, {90},
    {91}, {91}, {}, {91}, {91},
    {}, {}, {92}, {}, {},
    {}, {}, {93}, {}, {},
    {}, {}, {94}, {}, {},
    {}, {}, {95}, {}, {},
    {}, {}, {96}, {}, {},
    {}, {}, {97}, {}, {},
    {98}, {98}, {}, {98}, {98},
    {}, {}, {99}, {}, {},
    {}, {}, {100}, {}, {},
    {}, {}, {101}, {}, {},
    {}, {}, {102}, {}, {},
    {}, {}, {103}, {}, {},
    {}, {}, {104}, {}, {},
    {105}, {105}, {}, {105}, {105},
    {}, {}, {106}, {}, {},
    {}, {}, {107}, {}, {},
    {}, {}, {37}, {}, {},
    {108}, {108}, {109}, {108}, {108},
    {}, {}, {110}, {}, {},
    {}, {}, {111}, {}, {},
    {112}, {112}, {}, {112}, {112},
    {113}, {113}, {}, {113}, {113},
    {114}, {114}, {}, {114}, {114},
    {115}, {115}, {}, {115}, {115},
    {}, {}, {116}, {}, {},
    {}, {}, {117}, {}, {},
    {}, {}, {118}, {}, {},
    {119}, {119}, {}, {119}, {119},
    {120}, {120}, {}, {120}, {120},
    {121}, {121}, {}, {121}, {121},
    {}, {}, {122}, {}, {},
    {}, {}, {123}, {}, {},
    {}, {}, {124}, {}, {},
    {}, {}, {125}, {}, {},
    {20}, {20}, {}, {20}, {20},
    {126}, {126}, {127}, {126}, {126},
    {}, {}, {128}, {}, {},
    {}, {}, {129}, {}, {},
    {}, {}, {130}, {}, {},
    {}, {}, {131}, {}, {},
    {}, {}, {132}, {}, {},
    {133}, {133}, {}, {133}, {133},
    {}, {}, {134}, {}, {},
    {}, {}, {135}, {}, {},
    {}, {}, {136}, {}, {},
    {}, {}, {137}, {}, {},
    {}, {}, {138}, {}, {},
    {}, {}, {139}, {}, {},
    {140}, {140}, {}, {140}, {140},
    {}, {}, {141}, {}, {},
    {}, {}, {142}, {}, {},
    {}, {}, {143}, {}, {},
    {}, {}, {144}, {}, {},
    {}, {}, {145}, {}, {},
    {}, {}, {62}, {}, {},
    {146}, {146}, {147}, {146}, {146},
    {}, {}, {148}, {}, {},
    {}, {}, {149}, {}, {},
    {150}, {150}, {}, {150}, {150},
    {151}, {151}, {}, {151}, {151},
    {152}, {152}, {}, {152}, {152},
    {153}, {153}, {}, {153}, {153},
    {}, {}, {154}, {}, {},
    {}, {}, {155}, {}, {},
    {}, {}, {156}, {}, {},
    {157}, {157}, {}, {157}, {157},
    {158}, {158}, {}, {158}, {158},
    {159}, {159}, {}, {159}, {159},
    {160}, {160}, {}, {160}, {160},
    {}, {}, {161}, {}, {},
    {}, {}, {162}, {}, {},
    {}, {}, {163}, {}, {},
    {164}, {164}, {}, {164}, {164},
    {165}, {165}, {}, {165}, {165},
    {166}, {166}, {}, {166}, {166},
    {167}, {167}, {}, {167}, {167},
    {}, {}, {168}, {}, {},
    {}, {}, {169}, {}, {},
    {}, {}, {170}, {}, {},
    {}, {}, {27}, {}, {},
    {171}, {171}, {88}, {171}, {171},

  % k = 4
    {2, 39, 57, 85, 102, 133, 142, 159}, {2, 39, 57, 85, 102, 133, 142, 159}, {2, 39, 57, 85, 102, 133, 142, 159}, {3, 40, 58, 86, 103, 134, 143, 160}, {2, 39, 57, 85, 102, 133, 142, 159},
    {2}, {2}, {2}, {3}, {2},
    {4}, {4}, {4}, {}, {4},
    {5}, {5}, {5}, {}, {5},
    {6}, {6}, {6}, {}, {6},
    {7}, {7}, {7}, {}, {7},
    {8}, {8}, {8}, {}, {8},
    {9}, {9}, {9}, {}, {9},
    {}, {}, {}, {10}, {},
    {11}, {11}, {11}, {}, {11},
    {12}, {12}, {12}, {}, {12},
    {13}, {13}, {13}, {}, {13},
    {14}, {14}, {14}, {}, {14},
    {15}, {15}, {15}, {}, {15},
    {16}, {16}, {16}, {}, {16},
    {}, {}, {}, {17}, {},
    {18}, {18}, {18}, {}, {18},
    {19}, {19}, {19}, {}, {19},
    {20}, {20}, {20}, {}, {20},
    {21}, {21}, {21}, {}, {21},
    {}, {}, {}, {22}, {},
    {}, {}, {}, {23}, {},
    {}, {}, {}, {24}, {},
    {25}, {25}, {25}, {}, {25},
    {26}, {26}, {26}, {}, {26},
    {27}, {27}, {27}, {}, {27},
    {28}, {28}, {28}, {}, {28},
    {}, {}, {}, {29}, {},
    {}, {}, {}, {30}, {},
    {}, {}, {}, {31}, {},
    {32}, {32}, {32}, {}, {32},
    {33}, {33}, {33}, {}, {33},
    {34}, {34}, {34}, {}, {34},
    {35}, {35}, {35}, {}, {35},
    {36}, {36}, {36}, {}, {36},
    {37}, {37}, {37}, {}, {37},
    {}, {}, {}, {38}, {},
    {38}, {38}, {38}, {}, {38},
    {39}, {39}, {39}, {40}, {39},
    {}, {}, {}, {41}, {},
    {42}, {42}, {42}, {}, {42},
    {43}, {43}, {43}, {}, {43},
    {44}, {44}, {44}, {}, {44},
    {45}, {45}, {45}, {}, {45},
    {46}, {46}, {46}, {}, {46},
    {}, {}, {}, {47}, {},
    {}, {}, {}, {48}, {},
    {49}, {49}, {49}, {}, {49},
    {50}, {50}, {50}, {}, {50},
    {51}, {51}, {51}, {}, {51},
    {52}, {52}, {52}, {}, {52},
    {}, {}, {}, {53}, {},
    {}, {}, {}, {54}, {},
    {}, {}, {}, {55}, {},
    {}, {}, {}, {56}, {},
    {}, {}, {}, {37}, {},
    {57}, {57}, {57}, {58}, {57},
    {59}, {59}, {59}, {}, {59},
    {60}, {60}, {60}, {}, {60},
    {61}, {61}, {61}, {}, {61},
    {62}, {62}, {62}, {}, {62},
    {63}, {63}, {63}, {}, {63},
    {64}, {64}, {64}, {}, {64},
    {}, {}, {}, {65}, {},
    {}, {}, {}, {66}, {},
    {}, {}, {}, {67}, {},
    {68}, {68}, {68}, {}, {68},
    {69}, {69}, {69}, {}, {69},
    {70}, {70}, {70}, {}, {70},
    {71}, {71}, {71}, {}, {71},
    {}, {}, {}, {72}, {},
    {}, {}, {}, {73}, {},
    {}, {}, {}, {74}, {},
    {75}, {75}, {75}, {}, {75},
    {76}, {76}, {76}, {}, {76},
    {77}, {77}, {77}, {}, {77},
    {78}, {78}, {78}, {}, {78},
    {}, {}, {}, {79}, {},
    {80}, {80}, {80}, {}, {80},
    {81}, {81}, {81}, {}, {81},
    {82}, {82}, {82}, {}, {82},
    {83}, {83}, {83}, {}, {83},
    {84}, {84}, {84}, {}, {84},
    {30}, {30}, {30}, {}, {30},
    {85}, {85}, {85}, {86}, {85},
    {}, {}, {}, {87}, {},
    {}, {}, {}, {88}, {},
    {}, {}, {}, {89}, {},
    {}, {}, {}, {90}, {},
    {}, {}, {}, {91}, {},
    {92}, {92}, {92}, {}, {92},
    {93}, {93}, {93}, {}, {93},
    {94}, {94}, {94}, {}, {94},
    {95}, {95}, {95}, {}, {95},
    {}, {}, {}, {96}, {},
    {}, {}, {}, {97}, {},
    {98}, {98}, {98}, {}, {98},
    {99}, {99}, {99}, {}, {99},
    {100}, {100}, {100}, {}, {100},
    {101}, {101}, {101}, {}, {101},
    {56}, {56}, {56}, {}, {56},
    {102}, {102}, {102}, {103}, {102},
    {104}, {104}, {104}, {}, {104},
    {105}, {105}, {105}, {}, {105},
    {106}, {106}, {106}, {}, {106},
    {107}, {107}, {107}, {}, {107},
    {108}, {108}, {108}, {}, {108},
    {109}, {109}, {109}, {}, {109},
    {}, {}, {}, {110}, {},
    {111}, {111}, {111}, {}, {111},
    {112}, {112}, {112}, {}, {112},
    {113}, {113}, {113}, {}, {113},
    {114}, {114}, {114}, {}, {114},
    {115}, {115}, {115}, {}, {115},
    {116}, {116}, {116}, {}, {116},
    {}, {}, {}, {117}, {},
    {118}, {118}, {118}, {}, {118},
    {119}, {119}, {119}, {}, {119},
    {120}, {120}, {120}, {}, {120},
    {121}, {121}, {121}, {}, {121},
    {122}, {122}, {122}, {}, {122},
    {123}, {123}, {123}, {}, {123},
    {}, {}, {}, {124}, {},
    {}, {}, {}, {125}, {},
    {}, {}, {}, {126}, {},
    {127}, {127}, {127}, {}, {127},
    {128}, {128}, {128}, {}, {128},
    {129}, {129}, {129}, {}, {129},
    {130}, {130}, {130}, {}, {130},
    {}, {}, {}, {131}, {},
    {}, {}, {}, {132}, {},
    {}, {}, {}, {33}, {},
    {133}, {133}, {133}, {134}, {133},
    {}, {}, {}, {135}, {},
    {136}, {136}, {136}, {}, {136},
    {137}, {137}, {137}, {}, {137},
    {138}, {138}, {138}, {}, {138},
    {139}, {139}, {139}, {}, {139},
    {140}, {140}, {140}, {}, {140},
    {}, {}, {}, {141}, {},
    {}, {}, {}, {50}, {},
    {142}, {142}, {142}, {143}, {142},
    {144}, {144}, {144}, {}, {144},
    {145}, {145}, {145}, {}, {145},
    {146}, {146}, {146}, {}, {146},
    {147}, {147}, {147}, {}, {147},
    {}, {}, {}, {148}, {},
    {}, {}, {}, {149}, {},
    {}, {}, {}, {150}, {},
    {151}, {151}, {151}, {}, {151},
    {152}, {152}, {152}, {}, {152},
    {153}, {153}, {153}, {}, {153},
    {154}, {154}, {154}, {}, {154},
    {}, {}, {}, {155}, {},
    {}, {}, {}, {156}, {},
    {}, {}, {}, {157}, {},
    {158}, {158}, {158}, {}, {158},
    {74}, {74}, {74}, {}, {74},
    {159}, {159}, {159}, {160}, {159},
    {}, {}, {}, {161}, {},
    {}, {}, {}, {162}, {},
    {}, {}, {}, {163}, {},
    {}, {}, {}, {164}, {},
    {}, {}, {}, {93}, {},
    {}, {}, {}, {}, {},
    {}, {}, {}, {}, {},
    {}, {}, {}, {}, {},
    {}, {}, {}, {}, {},
    {}, {}, {}, {}, {},
    {}, {}, {}, {}, {},
    {}, {}, {}, {}, {}
]);
